4 
5  34 51 
6  04 19 32 45 
7  00 15 30 45 
8  00 15 30 45 
9  00 15 30 45 
10  02 17 32 47 
11  02 17 32 47 
12  02 17 32 47 
13  02 17 32 47 
14  02 17 32 47 
15  02 17 32 47 
16  02 17 32 47 
17  02 17 32 47 
18  02 17 32 47 
19  02 17 32 47 
20  02 17 32 47 
21  02 17 32 47 
22  02 19 34 49 
23  01 14 
0 
